(set-info :Origin "This instance was generated by: BanditFuzz-- an RL fuzzer for SMT solvers" )
(set-info :Author "Joe Scott, Fed Mora, Vijay Ganesh" )
(set-info :Contact "Joe Scott, joseph.scott@uwaterloo.ca")
(set-logic QF_BV)
(declare-const bool_0 Bool)
(declare-const bool_1 Bool)
(declare-const bool_2 Bool)
(declare-const bool_3 Bool)
(declare-const bool_4 Bool)
(declare-const bv_0 (_ BitVec 32))
(declare-const bv_1 (_ BitVec 32))
(declare-const bv_2 (_ BitVec 32))
(declare-const bv_3 (_ BitVec 32))
(declare-const bv_4 (_ BitVec 32))
(assert (bvult (bvlshr (bvnor bv_4 bv_2) (bvlshr #xf010c4dd  #x36f182db )) (bvor (bvlshr #x7213ac7c  #x5e235822 ) (bvshl #x285ceaba  #x682a1d9d ))))
(assert (=> (bvule (bvnor bv_3 #x25748713 ) (bvsrem bv_0 #x8bb22031 )) (and (bvsge bv_1 #xc43f5cb3 ) (bvule bv_1 #xd5b8b5b8 ))))
(assert (bvugt (bvashr (bvshl bv_4 #xc5ddde07 ) (bvnand bv_4 #x341aa6b8 )) (bvashr (bvshl bv_0 #xd2099d49 ) (bvor bv_4 #xade266a1 ))))
(assert (not (bvsle (bvudiv #x3778068e  bv_2) (bvmul #x7fce5870  bv_0))))
(assert (and (or (bvule bv_0 #x29284ee7 ) (xor bool_3 bool_4)) (xor (bvsle #x34907b05  bv_2) (not bool_0))))
(check-sat)
(exit)
